(set-logic QF_LRA)
(declare-fun fluent_started_i0_t2@1 () Bool)
(declare-fun fluent_treated_i0_t0@1 () Bool)
(declare-fun fluent_started_i0_t0@0 () Bool)
(declare-fun fluent_started_i0_t1@0 () Bool)
(declare-fun fluent_started_i0_t2@0 () Bool)
(declare-fun fluent_treated_i0_t1@1 () Bool)
(declare-fun fluent_ready_i0_t0@0 () Bool)
(declare-fun fluent_ready_i0_t1@0 () Bool)
(declare-fun fluent_ready_i0_t2@0 () Bool)
(declare-fun fluent_treated_i0_t2@1 () Bool)
(declare-fun fluent_busy_@0 () Bool)
(declare-fun fluent_treated_i0_t0@0 () Bool)
(declare-fun fluent_treated_i0_t1@0 () Bool)
(declare-fun fluent_treated_i0_t2@0 () Bool)
(declare-fun fluent_ready_i0_t0@1 () Bool)
(declare-fun fluent_ready_i0_t1@1 () Bool)
(declare-fun fluent_ready_i0_t2@1 () Bool)
(declare-fun act_make_treatment@1 () Bool)
(declare-fun fluent_counter_t0@0 () Real)
(declare-fun fluent_counter_t1@0 () Real)
(declare-fun fluent_counter_t2@0 () Real)
(declare-fun dur_make_treatment@1 () Real)
(declare-fun t@1 () Real)
(declare-fun parameter_make_treatment_t@1 () Real)
(declare-fun parameter_make_treatment_i@1 () Real)
(declare-fun parameter_make_treatment_next@1 () Real)
(declare-fun fluent_counter_t0@1 () Real)
(declare-fun fluent_counter_t1@1 () Real)
(declare-fun fluent_counter_t2@1 () Real)
(declare-fun fluent_busy_@1 () Bool)
(declare-fun fluent_started_i0_t0@1 () Bool)
(declare-fun fluent_started_i0_t1@1 () Bool)
(assert (let ((.def_0 (= parameter_make_treatment_i@1 0.0))) (let ((.def_1 (= parameter_make_treatment_t@1 3.0))) (let ((.def_2 (= parameter_make_treatment_t@1 2.0))) (let ((.def_3 (= parameter_make_treatment_t@1 1.0))) (let ((.def_4 (or .def_3 .def_2 .def_1))) (let ((.def_5 (<= fluent_counter_t2@1 31.0))) (let ((.def_6 (<= 0.0 fluent_counter_t2@1))) (let ((.def_7 (<= fluent_counter_t1@1 31.0))) (let ((.def_8 (<= 0.0 fluent_counter_t1@1))) (let ((.def_9 (<= fluent_counter_t0@1 31.0))) (let ((.def_10 (= parameter_make_treatment_next@1 3.0))) (let ((.def_11 (= parameter_make_treatment_next@1 2.0))) (let ((.def_12 (= parameter_make_treatment_next@1 1.0))) (let ((.def_13 (or .def_12 .def_11 .def_10))) (let ((.def_14 (<= 0.0 fluent_counter_t0@1))) (let ((.def_15 (and act_make_treatment@1 true .def_1))) (let ((.def_16 (= fluent_counter_t2@0 fluent_counter_t2@1))) (let ((.def_17 (not .def_16))) (let ((.def_18 (=> .def_17 .def_15))) (let ((.def_19 (and act_make_treatment@1 true .def_2))) (let ((.def_20 (= fluent_counter_t1@0 fluent_counter_t1@1))) (let ((.def_21 (not .def_20))) (let ((.def_22 (=> .def_21 .def_19))) (let ((.def_23 (and act_make_treatment@1 true .def_3))) (let ((.def_24 (= fluent_counter_t0@0 fluent_counter_t0@1))) (let ((.def_25 (not .def_24))) (let ((.def_26 (=> .def_25 .def_23))) (let ((.def_27 (+ t@1 10.0))) (let ((.def_28 (= t@1 .def_27))) (let ((.def_29 (and act_make_treatment@1 true .def_28 .def_0 .def_10))) (let ((.def_30 (= fluent_ready_i0_t2@0 fluent_ready_i0_t2@1))) (let ((.def_31 (not .def_30))) (let ((.def_32 (=> .def_31 .def_29))) (let ((.def_33 (and act_make_treatment@1 true .def_28 .def_0 .def_11))) (let ((.def_34 (= fluent_ready_i0_t1@0 fluent_ready_i0_t1@1))) (let ((.def_35 (not .def_34))) (let ((.def_36 (=> .def_35 .def_33))) (let ((.def_37 (and act_make_treatment@1 true .def_28 .def_0 .def_12))) (let ((.def_38 (= fluent_ready_i0_t0@0 fluent_ready_i0_t0@1))) (let ((.def_39 (not .def_38))) (let ((.def_40 (=> .def_39 .def_37))) (let ((.def_41 (and act_make_treatment@1 true .def_0 .def_1))) (let ((.def_42 (= fluent_started_i0_t2@0 fluent_started_i0_t2@1))) (let ((.def_43 (not .def_42))) (let ((.def_44 (=> .def_43 .def_41))) (let ((.def_45 (and act_make_treatment@1 true .def_0 .def_2))) (let ((.def_46 (= fluent_started_i0_t1@0 fluent_started_i0_t1@1))) (let ((.def_47 (not .def_46))) (let ((.def_48 (=> .def_47 .def_45))) (let ((.def_49 (and act_make_treatment@1 true .def_0 .def_3))) (let ((.def_50 (= fluent_started_i0_t0@0 fluent_started_i0_t0@1))) (let ((.def_51 (not .def_50))) (let ((.def_52 (=> .def_51 .def_49))) (let ((.def_53 (+ t@1 4.0))) (let ((.def_54 (= t@1 .def_53))) (let ((.def_55 (and act_make_treatment@1 true .def_54 .def_0 .def_1))) (let ((.def_56 (= fluent_treated_i0_t2@0 fluent_treated_i0_t2@1))) (let ((.def_57 (not .def_56))) (let ((.def_58 (=> .def_57 .def_55))) (let ((.def_59 (and act_make_treatment@1 true .def_54 .def_0 .def_2))) (let ((.def_60 (= fluent_treated_i0_t1@0 fluent_treated_i0_t1@1))) (let ((.def_61 (not .def_60))) (let ((.def_62 (=> .def_61 .def_59))) (let ((.def_63 (and act_make_treatment@1 true .def_54 .def_0 .def_3))) (let ((.def_64 (= fluent_treated_i0_t0@0 fluent_treated_i0_t0@1))) (let ((.def_65 (not .def_64))) (let ((.def_66 (=> .def_65 .def_63))) (let ((.def_67 (and act_make_treatment@1 true .def_54))) (let ((.def_68 (and act_make_treatment@1 true))) (let ((.def_69 (and .def_68 .def_67))) (let ((.def_70 (not .def_69))) (let ((.def_71 (or .def_68 .def_67))) (let ((.def_72 (= fluent_busy_@0 fluent_busy_@1))) (let ((.def_73 (not .def_72))) (let ((.def_74 (=> .def_73 .def_71))) (let ((.def_75 (and .def_74 .def_70 .def_66 .def_62 .def_58 .def_52 .def_48 .def_44 .def_40 .def_36 .def_32 .def_26 .def_22 .def_18))) (let ((.def_76 (<= 0.0 t@1))) (let ((.def_77 (and .def_0 .def_11))) (let ((.def_78 (ite .def_77 fluent_ready_i0_t1@1 fluent_ready_i0_t0@1))) (let ((.def_79 (and .def_0 .def_10))) (let ((.def_80 (ite .def_79 fluent_ready_i0_t2@1 .def_78))) (let ((.def_81 (= .def_80 true))) (let ((.def_82 (=> true .def_81))) (let ((.def_83 (and .def_28 .def_82))) (let ((.def_84 (= fluent_busy_@1 false))) (let ((.def_85 (=> true .def_84))) (let ((.def_86 (and .def_0 .def_2))) (let ((.def_87 (ite .def_86 fluent_treated_i0_t1@1 fluent_treated_i0_t0@1))) (let ((.def_88 (and .def_0 .def_1))) (let ((.def_89 (ite .def_88 fluent_treated_i0_t2@1 .def_87))) (let ((.def_90 (= .def_89 true))) (let ((.def_91 (=> true .def_90))) (let ((.def_92 (and .def_54 .def_91 .def_85))) (let ((.def_93 (ite .def_86 fluent_started_i0_t1@1 fluent_started_i0_t0@1))) (let ((.def_94 (ite .def_88 fluent_started_i0_t2@1 .def_93))) (let ((.def_95 (= .def_94 true))) (let ((.def_96 (=> true .def_95))) (let ((.def_97 (= fluent_busy_@1 true))) (let ((.def_98 (=> true .def_97))) (let ((.def_99 (ite .def_2 fluent_counter_t1@0 fluent_counter_t0@0))) (let ((.def_100 (ite .def_1 fluent_counter_t2@0 .def_99))) (let ((.def_101 (+ .def_100 1.0))) (let ((.def_102 (ite .def_2 fluent_counter_t1@1 fluent_counter_t0@1))) (let ((.def_103 (ite .def_1 fluent_counter_t2@1 .def_102))) (let ((.def_104 (= .def_103 .def_101))) (let ((.def_105 (=> true .def_104))) (let ((.def_106 (= t@1 t@1))) (let ((.def_107 (and .def_106 .def_105 .def_98 .def_96))) (let ((.def_108 (ite .def_77 fluent_started_i0_t1@0 fluent_started_i0_t0@0))) (let ((.def_109 (ite .def_79 fluent_started_i0_t2@0 .def_108))) (let ((.def_110 (+ t@1 dur_make_treatment@1))) (let ((.def_111 (<= .def_110 t@1))) (let ((.def_112 (< (- 1.0) .def_110))) (let ((.def_113 (and .def_112 .def_111))) (let ((.def_114 (=> .def_113 .def_109))) (let ((.def_115 (ite .def_86 fluent_ready_i0_t1@0 fluent_ready_i0_t0@0))) (let ((.def_116 (ite .def_88 fluent_ready_i0_t2@0 .def_115))) (let ((.def_117 (ite .def_86 fluent_started_i0_t1@0 fluent_started_i0_t0@0))) (let ((.def_118 (ite .def_88 fluent_started_i0_t2@0 .def_117))) (let ((.def_119 (not .def_118))) (let ((.def_120 (ite .def_86 fluent_treated_i0_t1@0 fluent_treated_i0_t0@0))) (let ((.def_121 (ite .def_88 fluent_treated_i0_t2@0 .def_120))) (let ((.def_122 (not .def_121))) (let ((.def_123 (not fluent_busy_@0))) (let ((.def_124 (and .def_2 .def_12))) (let ((.def_125 (ite .def_124 false false))) (let ((.def_126 (and .def_1 .def_12))) (let ((.def_127 (ite .def_126 false .def_125))) (let ((.def_128 (and .def_3 .def_11))) (let ((.def_129 (ite .def_128 true .def_127))) (let ((.def_130 (and .def_2 .def_11))) (let ((.def_131 (ite .def_130 false .def_129))) (let ((.def_132 (and .def_1 .def_11))) (let ((.def_133 (ite .def_132 false .def_131))) (let ((.def_134 (and .def_3 .def_10))) (let ((.def_135 (ite .def_134 false .def_133))) (let ((.def_136 (and .def_2 .def_10))) (let ((.def_137 (ite .def_136 true .def_135))) (let ((.def_138 (and .def_1 .def_10))) (let ((.def_139 (ite .def_138 false .def_137))) (let ((.def_140 (= 0.0 .def_100))) (let ((.def_141 (and .def_140 .def_139 .def_123 .def_122 .def_119 .def_116))) (let ((.def_142 (<= t@1 t@1))) (let ((.def_143 (< (- 1.0) t@1))) (let ((.def_144 (and .def_143 .def_142))) (let ((.def_145 (=> .def_144 .def_141))) (let ((.def_146 (<= dur_make_treatment@1 15.0))) (let ((.def_147 (<= 15.0 dur_make_treatment@1))) (let ((.def_148 (and .def_147 .def_146))) (let ((.def_149 (and .def_148 .def_111 .def_145 .def_114 .def_107 .def_92 .def_83))) (let ((.def_150 (=> act_make_treatment@1 .def_149))) (let ((.def_151 (<= 0.0 fluent_counter_t0@0))) (let ((.def_152 (<= fluent_counter_t2@0 31.0))) (let ((.def_153 (<= 0.0 fluent_counter_t2@0))) (let ((.def_154 (<= fluent_counter_t1@0 31.0))) (let ((.def_155 (<= 0.0 fluent_counter_t1@0))) (let ((.def_156 (<= fluent_counter_t0@0 31.0))) (let ((.def_157 (= fluent_counter_t2@0 0.0))) (let ((.def_158 (= fluent_counter_t1@0 0.0))) (let ((.def_159 (= fluent_counter_t0@0 0.0))) (let ((.def_160 (= false false))) (let ((.def_161 (= fluent_ready_i0_t2@0 false))) (let ((.def_162 (= fluent_ready_i0_t1@0 false))) (let ((.def_163 (= fluent_started_i0_t1@0 false))) (let ((.def_164 (= fluent_started_i0_t0@0 false))) (let ((.def_165 (= fluent_treated_i0_t2@0 false))) (let ((.def_166 (= fluent_treated_i0_t1@0 false))) (let ((.def_167 (= fluent_treated_i0_t0@0 false))) (let ((.def_168 (= fluent_busy_@0 false))) (let ((.def_169 (= fluent_ready_i0_t0@0 true))) (let ((.def_170 (= fluent_started_i0_t2@0 true))) (let ((.def_171 (= true true))) (let ((.def_172 (= 0.0 0.0))) (let ((.def_173 (and .def_172 .def_171 .def_171 .def_170 .def_169 .def_168 .def_167 .def_166 .def_165 .def_164 .def_163 .def_162 .def_161 .def_160 .def_160 .def_160 .def_160 .def_160 .def_160 .def_160 .def_159 .def_158 .def_157 .def_156 .def_155 .def_154 .def_153 .def_152 .def_151))) (let ((.def_174 (and .def_173 .def_150 .def_76 true true .def_75 .def_14 .def_13 .def_9 .def_8 .def_7 .def_6 .def_5 .def_4 .def_0 true))) .def_174))))))))))))))))))))))))))))))))))))))))))))))))))))))))))))))))))))))))))))))))))))))))))))))))))))))))))))))))))))))))))))))))))))))))))))))))))))))))))))))))))))))))))))))))
(check-sat)

--------------------------------------------------------------------------------
(set-logic QF_LRA)
(declare-fun fluent_started_i0_t2@1 () Bool)
(declare-fun dur_make_treatment@2 () Real)
(declare-fun act_make_treatment@2 () Bool)
(declare-fun fluent_started_i0_t0@0 () Bool)
(declare-fun fluent_started_i0_t1@0 () Bool)
(declare-fun fluent_started_i0_t2@0 () Bool)
(declare-fun fluent_treated_i0_t0@1 () Bool)
(declare-fun fluent_ready_i0_t0@0 () Bool)
(declare-fun fluent_ready_i0_t1@0 () Bool)
(declare-fun fluent_ready_i0_t2@0 () Bool)
(declare-fun fluent_treated_i0_t1@1 () Bool)
(declare-fun fluent_busy_@0 () Bool)
(declare-fun fluent_treated_i0_t2@1 () Bool)
(declare-fun fluent_treated_i0_t0@0 () Bool)
(declare-fun fluent_treated_i0_t1@0 () Bool)
(declare-fun fluent_treated_i0_t2@0 () Bool)
(declare-fun fluent_ready_i0_t0@1 () Bool)
(declare-fun fluent_ready_i0_t1@1 () Bool)
(declare-fun fluent_ready_i0_t2@1 () Bool)
(declare-fun act_make_treatment@1 () Bool)
(declare-fun fluent_counter_t0@0 () Real)
(declare-fun fluent_counter_t1@0 () Real)
(declare-fun fluent_counter_t2@0 () Real)
(declare-fun parameter_make_treatment_t@2 () Real)
(declare-fun dur_make_treatment@1 () Real)
(declare-fun parameter_make_treatment_i@2 () Real)
(declare-fun t@1 () Real)
(declare-fun parameter_make_treatment_t@1 () Real)
(declare-fun parameter_make_treatment_next@2 () Real)
(declare-fun parameter_make_treatment_i@1 () Real)
(declare-fun parameter_make_treatment_next@1 () Real)
(declare-fun fluent_counter_t0@2 () Real)
(declare-fun t@2 () Real)
(declare-fun fluent_counter_t1@2 () Real)
(declare-fun fluent_counter_t2@2 () Real)
(declare-fun fluent_started_i0_t0@2 () Bool)
(declare-fun fluent_counter_t0@1 () Real)
(declare-fun fluent_started_i0_t1@2 () Bool)
(declare-fun fluent_started_i0_t2@2 () Bool)
(declare-fun fluent_counter_t1@1 () Real)
(declare-fun fluent_treated_i0_t0@2 () Bool)
(declare-fun fluent_treated_i0_t1@2 () Bool)
(declare-fun fluent_treated_i0_t2@2 () Bool)
(declare-fun fluent_counter_t2@1 () Real)
(declare-fun fluent_busy_@2 () Bool)
(declare-fun fluent_ready_i0_t2@2 () Bool)
(declare-fun fluent_busy_@1 () Bool)
(declare-fun fluent_ready_i0_t0@2 () Bool)
(declare-fun fluent_ready_i0_t1@2 () Bool)
(declare-fun fluent_started_i0_t0@1 () Bool)
(declare-fun fluent_started_i0_t1@1 () Bool)
(assert (let ((.def_0 (<= 0.0 fluent_counter_t1@2))) (let ((.def_1 (<= fluent_counter_t0@2 31.0))) (let ((.def_2 (<= 0.0 fluent_counter_t0@2))) (let ((.def_3 (= parameter_make_treatment_next@2 3.0))) (let ((.def_4 (= parameter_make_treatment_next@2 2.0))) (let ((.def_5 (= parameter_make_treatment_next@2 1.0))) (let ((.def_6 (or .def_5 .def_4 .def_3))) (let ((.def_7 (= parameter_make_treatment_i@2 0.0))) (let ((.def_8 (= parameter_make_treatment_t@2 3.0))) (let ((.def_9 (= parameter_make_treatment_t@2 2.0))) (let ((.def_10 (= parameter_make_treatment_t@2 1.0))) (let ((.def_11 (or .def_10 .def_9 .def_8))) (let ((.def_12 (<= fluent_counter_t2@2 31.0))) (let ((.def_13 (<= 0.0 fluent_counter_t2@2))) (let ((.def_14 (<= fluent_counter_t1@2 31.0))) (let ((.def_15 (and act_make_treatment@2 true .def_8))) (let ((.def_16 (= fluent_counter_t2@1 fluent_counter_t2@2))) (let ((.def_17 (not .def_16))) (let ((.def_18 (=> .def_17 .def_15))) (let ((.def_19 (and act_make_treatment@2 true .def_9))) (let ((.def_20 (= fluent_counter_t1@1 fluent_counter_t1@2))) (let ((.def_21 (not .def_20))) (let ((.def_22 (=> .def_21 .def_19))) (let ((.def_23 (and act_make_treatment@2 true .def_10))) (let ((.def_24 (= fluent_counter_t0@1 fluent_counter_t0@2))) (let ((.def_25 (not .def_24))) (let ((.def_26 (=> .def_25 .def_23))) (let ((.def_27 (+ t@2 10.0))) (let ((.def_28 (= t@2 .def_27))) (let ((.def_29 (and act_make_treatment@2 true .def_28 .def_7 .def_3))) (let ((.def_30 (= parameter_make_treatment_next@1 3.0))) (let ((.def_31 (= parameter_make_treatment_i@1 0.0))) (let ((.def_32 (+ t@1 10.0))) (let ((.def_33 (= t@2 .def_32))) (let ((.def_34 (and act_make_treatment@1 true .def_33 .def_31 .def_30))) (let ((.def_35 (and .def_34 .def_29))) (let ((.def_36 (not .def_35))) (let ((.def_37 (or .def_34 .def_29))) (let ((.def_38 (= fluent_ready_i0_t2@1 fluent_ready_i0_t2@2))) (let ((.def_39 (not .def_38))) (let ((.def_40 (=> .def_39 .def_37))) (let ((.def_41 (and act_make_treatment@2 true .def_28 .def_7 .def_4))) (let ((.def_42 (= parameter_make_treatment_next@1 2.0))) (let ((.def_43 (and act_make_treatment@1 true .def_33 .def_31 .def_42))) (let ((.def_44 (and .def_43 .def_41))) (let ((.def_45 (not .def_44))) (let ((.def_46 (or .def_43 .def_41))) (let ((.def_47 (= fluent_ready_i0_t1@1 fluent_ready_i0_t1@2))) (let ((.def_48 (not .def_47))) (let ((.def_49 (=> .def_48 .def_46))) (let ((.def_50 (and act_make_treatment@2 true .def_28 .def_7 .def_5))) (let ((.def_51 (= parameter_make_treatment_next@1 1.0))) (let ((.def_52 (and act_make_treatment@1 true .def_33 .def_31 .def_51))) (let ((.def_53 (and .def_52 .def_50))) (let ((.def_54 (not .def_53))) (let ((.def_55 (or .def_52 .def_50))) (let ((.def_56 (= fluent_ready_i0_t0@1 fluent_ready_i0_t0@2))) (let ((.def_57 (not .def_56))) (let ((.def_58 (=> .def_57 .def_55))) (let ((.def_59 (and act_make_treatment@2 true .def_7 .def_8))) (let ((.def_60 (= fluent_started_i0_t2@1 fluent_started_i0_t2@2))) (let ((.def_61 (not .def_60))) (let ((.def_62 (=> .def_61 .def_59))) (let ((.def_63 (and act_make_treatment@2 true .def_7 .def_9))) (let ((.def_64 (= fluent_started_i0_t1@1 fluent_started_i0_t1@2))) (let ((.def_65 (not .def_64))) (let ((.def_66 (=> .def_65 .def_63))) (let ((.def_67 (and act_make_treatment@2 true .def_7 .def_10))) (let ((.def_68 (= fluent_started_i0_t0@1 fluent_started_i0_t0@2))) (let ((.def_69 (not .def_68))) (let ((.def_70 (=> .def_69 .def_67))) (let ((.def_71 (+ t@2 4.0))) (let ((.def_72 (= t@2 .def_71))) (let ((.def_73 (and act_make_treatment@2 true .def_72 .def_7 .def_8))) (let ((.def_74 (= parameter_make_treatment_t@1 3.0))) (let ((.def_75 (+ t@1 4.0))) (let ((.def_76 (= t@2 .def_75))) (let ((.def_77 (and act_make_treatment@1 true .def_76 .def_31 .def_74))) (let ((.def_78 (and .def_77 .def_73))) (let ((.def_79 (not .def_78))) (let ((.def_80 (or .def_77 .def_73))) (let ((.def_81 (= fluent_treated_i0_t2@1 fluent_treated_i0_t2@2))) (let ((.def_82 (not .def_81))) (let ((.def_83 (=> .def_82 .def_80))) (let ((.def_84 (and act_make_treatment@2 true .def_72 .def_7 .def_9))) (let ((.def_85 (= parameter_make_treatment_t@1 2.0))) (let ((.def_86 (and act_make_treatment@1 true .def_76 .def_31 .def_85))) (let ((.def_87 (and .def_86 .def_84))) (let ((.def_88 (not .def_87))) (let ((.def_89 (or .def_86 .def_84))) (let ((.def_90 (= fluent_treated_i0_t1@1 fluent_treated_i0_t1@2))) (let ((.def_91 (not .def_90))) (let ((.def_92 (=> .def_91 .def_89))) (let ((.def_93 (and act_make_treatment@2 true .def_72 .def_7 .def_10))) (let ((.def_94 (= parameter_make_treatment_t@1 1.0))) (let ((.def_95 (and act_make_treatment@1 true .def_76 .def_31 .def_94))) (let ((.def_96 (and .def_95 .def_93))) (let ((.def_97 (not .def_96))) (let ((.def_98 (or .def_95 .def_93))) (let ((.def_99 (= fluent_treated_i0_t0@1 fluent_treated_i0_t0@2))) (let ((.def_100 (not .def_99))) (let ((.def_101 (=> .def_100 .def_98))) (let ((.def_102 (and act_make_treatment@2 true .def_72))) (let ((.def_103 (and act_make_treatment@1 true .def_76))) (let ((.def_104 (and .def_103 .def_102))) (let ((.def_105 (not .def_104))) (let ((.def_106 (and act_make_treatment@2 true))) (let ((.def_107 (and .def_106 .def_102))) (let ((.def_108 (not .def_107))) (let ((.def_109 (and .def_106 .def_103))) (let ((.def_110 (not .def_109))) (let ((.def_111 (or .def_106 .def_103 .def_102))) (let ((.def_112 (= fluent_busy_@1 fluent_busy_@2))) (let ((.def_113 (not .def_112))) (let ((.def_114 (=> .def_113 .def_111))) (let ((.def_115 (and .def_114 .def_110 .def_108 .def_105 .def_101 .def_97 .def_92 .def_88 .def_83 .def_79 .def_70 .def_66 .def_62 .def_58 .def_54 .def_49 .def_45 .def_40 .def_36 .def_26 .def_22 .def_18))) (let ((.def_116 (+ t@1 dur_make_treatment@1))) (let ((.def_117 (<= .def_116 t@2))) (let ((.def_118 (= parameter_make_treatment_next@2 parameter_make_treatment_next@1))) (let ((.def_119 (= parameter_make_treatment_t@2 parameter_make_treatment_t@1))) (let ((.def_120 (= parameter_make_treatment_i@2 parameter_make_treatment_i@1))) (let ((.def_121 (and .def_120 .def_119 .def_118))) (let ((.def_122 (and act_make_treatment@2 act_make_treatment@1 .def_121))) (let ((.def_123 (=> .def_122 .def_117))) (let ((.def_124 (= .def_71 t@1))) (let ((.def_125 (and act_make_treatment@2 act_make_treatment@1 .def_124))) (let ((.def_126 (not .def_125))) (let ((.def_127 (= t@2 t@1))) (let ((.def_128 (and act_make_treatment@2 act_make_treatment@1 .def_127))) (let ((.def_129 (not .def_128))) (let ((.def_130 (= .def_27 t@1))) (let ((.def_131 (and act_make_treatment@2 act_make_treatment@1 .def_130))) (let ((.def_132 (not .def_131))) (let ((.def_133 (+ t@2 dur_make_treatment@2))) (let ((.def_134 (= .def_133 .def_116))) (let ((.def_135 (and act_make_treatment@2 act_make_treatment@1 .def_134))) (let ((.def_136 (not .def_135))) (let ((.def_137 (= .def_71 .def_75))) (let ((.def_138 (and act_make_treatment@2 act_make_treatment@1 .def_137))) (let ((.def_139 (not .def_138))) (let ((.def_140 (= .def_27 .def_32))) (let ((.def_141 (and act_make_treatment@2 act_make_treatment@1 .def_140))) (let ((.def_142 (not .def_141))) (let ((.def_143 (= .def_133 t@1))) (let ((.def_144 (and act_make_treatment@2 act_make_treatment@1 .def_143))) (let ((.def_145 (not .def_144))) (let ((.def_146 (and .def_145 .def_142 .def_139 .def_136 .def_132 .def_129 .def_126))) (let ((.def_147 (< t@1 t@2))) (let ((.def_148 (and .def_7 .def_4))) (let ((.def_149 (ite .def_148 fluent_ready_i0_t1@2 fluent_ready_i0_t0@2))) (let ((.def_150 (and .def_7 .def_3))) (let ((.def_151 (ite .def_150 fluent_ready_i0_t2@2 .def_149))) (let ((.def_152 (= .def_151 true))) (let ((.def_153 (=> true .def_152))) (let ((.def_154 (and .def_28 .def_153))) (let ((.def_155 (= fluent_busy_@2 false))) (let ((.def_156 (=> true .def_155))) (let ((.def_157 (and .def_7 .def_9))) (let ((.def_158 (ite .def_157 fluent_treated_i0_t1@2 fluent_treated_i0_t0@2))) (let ((.def_159 (and .def_7 .def_8))) (let ((.def_160 (ite .def_159 fluent_treated_i0_t2@2 .def_158))) (let ((.def_161 (= .def_160 true))) (let ((.def_162 (=> true .def_161))) (let ((.def_163 (and .def_72 .def_162 .def_156))) (let ((.def_164 (ite .def_157 fluent_started_i0_t1@2 fluent_started_i0_t0@2))) (let ((.def_165 (ite .def_159 fluent_started_i0_t2@2 .def_164))) (let ((.def_166 (= .def_165 true))) (let ((.def_167 (=> true .def_166))) (let ((.def_168 (= fluent_busy_@2 true))) (let ((.def_169 (=> true .def_168))) (let ((.def_170 (ite .def_9 fluent_counter_t1@1 fluent_counter_t0@1))) (let ((.def_171 (ite .def_8 fluent_counter_t2@1 .def_170))) (let ((.def_172 (+ .def_171 1.0))) (let ((.def_173 (ite .def_9 fluent_counter_t1@2 fluent_counter_t0@2))) (let ((.def_174 (ite .def_8 fluent_counter_t2@2 .def_173))) (let ((.def_175 (= .def_174 .def_172))) (let ((.def_176 (=> true .def_175))) (let ((.def_177 (= t@2 t@2))) (let ((.def_178 (and .def_177 .def_176 .def_169 .def_167))) (let ((.def_179 (ite .def_148 fluent_started_i0_t1@1 fluent_started_i0_t0@1))) (let ((.def_180 (ite .def_150 fluent_started_i0_t2@1 .def_179))) (let ((.def_181 (<= .def_133 t@2))) (let ((.def_182 (< t@1 .def_133))) (let ((.def_183 (and .def_182 .def_181))) (let ((.def_184 (=> .def_183 .def_180))) (let ((.def_185 (ite .def_157 fluent_ready_i0_t1@1 fluent_ready_i0_t0@1))) (let ((.def_186 (ite .def_159 fluent_ready_i0_t2@1 .def_185))) (let ((.def_187 (ite .def_157 fluent_started_i0_t1@1 fluent_started_i0_t0@1))) (let ((.def_188 (ite .def_159 fluent_started_i0_t2@1 .def_187))) (let ((.def_189 (not .def_188))) (let ((.def_190 (ite .def_157 fluent_treated_i0_t1@1 fluent_treated_i0_t0@1))) (let ((.def_191 (ite .def_159 fluent_treated_i0_t2@1 .def_190))) (let ((.def_192 (not .def_191))) (let ((.def_193 (not fluent_busy_@1))) (let ((.def_194 (and .def_9 .def_5))) (let ((.def_195 (ite .def_194 false false))) (let ((.def_196 (and .def_8 .def_5))) (let ((.def_197 (ite .def_196 false .def_195))) (let ((.def_198 (and .def_10 .def_4))) (let ((.def_199 (ite .def_198 true .def_197))) (let ((.def_200 (and .def_9 .def_4))) (let ((.def_201 (ite .def_200 false .def_199))) (let ((.def_202 (and .def_8 .def_4))) (let ((.def_203 (ite .def_202 false .def_201))) (let ((.def_204 (and .def_10 .def_3))) (let ((.def_205 (ite .def_204 false .def_203))) (let ((.def_206 (and .def_9 .def_3))) (let ((.def_207 (ite .def_206 true .def_205))) (let ((.def_208 (and .def_8 .def_3))) (let ((.def_209 (ite .def_208 false .def_207))) (let ((.def_210 (= 0.0 .def_171))) (let ((.def_211 (and .def_210 .def_209 .def_193 .def_192 .def_189 .def_186))) (let ((.def_212 (<= t@2 t@2))) (let ((.def_213 (and .def_147 .def_212))) (let ((.def_214 (=> .def_213 .def_211))) (let ((.def_215 (<= dur_make_treatment@2 15.0))) (let ((.def_216 (<= 15.0 dur_make_treatment@2))) (let ((.def_217 (and .def_216 .def_215))) (let ((.def_218 (and .def_217 .def_181 .def_214 .def_184 .def_178 .def_163 .def_154))) (let ((.def_219 (=> act_make_treatment@2 .def_218))) (let ((.def_220 (or .def_94 .def_85 .def_74))) (let ((.def_221 (<= fluent_counter_t2@1 31.0))) (let ((.def_222 (<= 0.0 fluent_counter_t2@1))) (let ((.def_223 (<= fluent_counter_t1@1 31.0))) (let ((.def_224 (<= 0.0 fluent_counter_t1@1))) (let ((.def_225 (<= fluent_counter_t0@1 31.0))) (let ((.def_226 (or .def_51 .def_42 .def_30))) (let ((.def_227 (<= 0.0 fluent_counter_t0@1))) (let ((.def_228 (and act_make_treatment@1 true .def_74))) (let ((.def_229 (= fluent_counter_t2@0 fluent_counter_t2@1))) (let ((.def_230 (not .def_229))) (let ((.def_231 (=> .def_230 .def_228))) (let ((.def_232 (and act_make_treatment@1 true .def_85))) (let ((.def_233 (= fluent_counter_t1@0 fluent_counter_t1@1))) (let ((.def_234 (not .def_233))) (let ((.def_235 (=> .def_234 .def_232))) (let ((.def_236 (and act_make_treatment@1 true .def_94))) (let ((.def_237 (= fluent_counter_t0@0 fluent_counter_t0@1))) (let ((.def_238 (not .def_237))) (let ((.def_239 (=> .def_238 .def_236))) (let ((.def_240 (= t@1 .def_32))) (let ((.def_241 (and act_make_treatment@1 true .def_240 .def_31 .def_30))) (let ((.def_242 (= fluent_ready_i0_t2@0 fluent_ready_i0_t2@1))) (let ((.def_243 (not .def_242))) (let ((.def_244 (=> .def_243 .def_241))) (let ((.def_245 (and act_make_treatment@1 true .def_240 .def_31 .def_42))) (let ((.def_246 (= fluent_ready_i0_t1@0 fluent_ready_i0_t1@1))) (let ((.def_247 (not .def_246))) (let ((.def_248 (=> .def_247 .def_245))) (let ((.def_249 (and act_make_treatment@1 true .def_240 .def_31 .def_51))) (let ((.def_250 (= fluent_ready_i0_t0@0 fluent_ready_i0_t0@1))) (let ((.def_251 (not .def_250))) (let ((.def_252 (=> .def_251 .def_249))) (let ((.def_253 (and act_make_treatment@1 true .def_31 .def_74))) (let ((.def_254 (= fluent_started_i0_t2@0 fluent_started_i0_t2@1))) (let ((.def_255 (not .def_254))) (let ((.def_256 (=> .def_255 .def_253))) (let ((.def_257 (and act_make_treatment@1 true .def_31 .def_85))) (let ((.def_258 (= fluent_started_i0_t1@0 fluent_started_i0_t1@1))) (let ((.def_259 (not .def_258))) (let ((.def_260 (=> .def_259 .def_257))) (let ((.def_261 (and act_make_treatment@1 true .def_31 .def_94))) (let ((.def_262 (= fluent_started_i0_t0@0 fluent_started_i0_t0@1))) (let ((.def_263 (not .def_262))) (let ((.def_264 (=> .def_263 .def_261))) (let ((.def_265 (= t@1 .def_75))) (let ((.def_266 (and act_make_treatment@1 true .def_265 .def_31 .def_74))) (let ((.def_267 (= fluent_treated_i0_t2@0 fluent_treated_i0_t2@1))) (let ((.def_268 (not .def_267))) (let ((.def_269 (=> .def_268 .def_266))) (let ((.def_270 (and act_make_treatment@1 true .def_265 .def_31 .def_85))) (let ((.def_271 (= fluent_treated_i0_t1@0 fluent_treated_i0_t1@1))) (let ((.def_272 (not .def_271))) (let ((.def_273 (=> .def_272 .def_270))) (let ((.def_274 (and act_make_treatment@1 true .def_265 .def_31 .def_94))) (let ((.def_275 (= fluent_treated_i0_t0@0 fluent_treated_i0_t0@1))) (let ((.def_276 (not .def_275))) (let ((.def_277 (=> .def_276 .def_274))) (let ((.def_278 (and act_make_treatment@1 true .def_265))) (let ((.def_279 (and act_make_treatment@1 true))) (let ((.def_280 (and .def_279 .def_278))) (let ((.def_281 (not .def_280))) (let ((.def_282 (or .def_279 .def_278))) (let ((.def_283 (= fluent_busy_@0 fluent_busy_@1))) (let ((.def_284 (not .def_283))) (let ((.def_285 (=> .def_284 .def_282))) (let ((.def_286 (and .def_285 .def_281 .def_277 .def_273 .def_269 .def_264 .def_260 .def_256 .def_252 .def_248 .def_244 .def_239 .def_235 .def_231))) (let ((.def_287 (= .def_75 t@2))) (let ((.def_288 (and act_make_treatment@1 act_make_treatment@2 .def_287))) (let ((.def_289 (not .def_288))) (let ((.def_290 (= t@1 t@2))) (let ((.def_291 (and act_make_treatment@1 act_make_treatment@2 .def_290))) (let ((.def_292 (not .def_291))) (let ((.def_293 (= .def_32 t@2))) (let ((.def_294 (and act_make_treatment@1 act_make_treatment@2 .def_293))) (let ((.def_295 (not .def_294))) (let ((.def_296 (= .def_116 .def_133))) (let ((.def_297 (and act_make_treatment@1 act_make_treatment@2 .def_296))) (let ((.def_298 (not .def_297))) (let ((.def_299 (= .def_75 .def_71))) (let ((.def_300 (and act_make_treatment@1 act_make_treatment@2 .def_299))) (let ((.def_301 (not .def_300))) (let ((.def_302 (= .def_32 .def_27))) (let ((.def_303 (and act_make_treatment@1 act_make_treatment@2 .def_302))) (let ((.def_304 (not .def_303))) (let ((.def_305 (= .def_116 t@2))) (let ((.def_306 (and act_make_treatment@1 act_make_treatment@2 .def_305))) (let ((.def_307 (not .def_306))) (let ((.def_308 (and .def_307 .def_304 .def_301 .def_298 .def_295 .def_292 .def_289))) (let ((.def_309 (<= 0.0 t@1))) (let ((.def_310 (and .def_31 .def_42))) (let ((.def_311 (ite .def_310 fluent_ready_i0_t1@2 fluent_ready_i0_t0@2))) (let ((.def_312 (and .def_31 .def_30))) (let ((.def_313 (ite .def_312 fluent_ready_i0_t2@2 .def_311))) (let ((.def_314 (= .def_313 true))) (let ((.def_315 (=> true .def_314))) (let ((.def_316 (and .def_33 .def_315))) (let ((.def_317 (ite .def_310 fluent_ready_i0_t1@1 fluent_ready_i0_t0@1))) (let ((.def_318 (ite .def_312 fluent_ready_i0_t2@1 .def_317))) (let ((.def_319 (= .def_318 true))) (let ((.def_320 (=> true .def_319))) (let ((.def_321 (and .def_240 .def_320))) (let ((.def_322 (or .def_321 .def_316))) (let ((.def_323 (and .def_31 .def_85))) (let ((.def_324 (ite .def_323 fluent_treated_i0_t1@2 fluent_treated_i0_t0@2))) (let ((.def_325 (and .def_31 .def_74))) (let ((.def_326 (ite .def_325 fluent_treated_i0_t2@2 .def_324))) (let ((.def_327 (= .def_326 true))) (let ((.def_328 (=> true .def_327))) (let ((.def_329 (and .def_76 .def_328 .def_156))) (let ((.def_330 (= fluent_busy_@1 false))) (let ((.def_331 (=> true .def_330))) (let ((.def_332 (ite .def_323 fluent_treated_i0_t1@1 fluent_treated_i0_t0@1))) (let ((.def_333 (ite .def_325 fluent_treated_i0_t2@1 .def_332))) (let ((.def_334 (= .def_333 true))) (let ((.def_335 (=> true .def_334))) (let ((.def_336 (and .def_265 .def_335 .def_331))) (let ((.def_337 (or .def_336 .def_329))) (let ((.def_338 (ite .def_323 fluent_started_i0_t1@1 fluent_started_i0_t0@1))) (let ((.def_339 (ite .def_325 fluent_started_i0_t2@1 .def_338))) (let ((.def_340 (= .def_339 true))) (let ((.def_341 (=> true .def_340))) (let ((.def_342 (= fluent_busy_@1 true))) (let ((.def_343 (=> true .def_342))) (let ((.def_344 (ite .def_85 fluent_counter_t1@0 fluent_counter_t0@0))) (let ((.def_345 (ite .def_74 fluent_counter_t2@0 .def_344))) (let ((.def_346 (+ .def_345 1.0))) (let ((.def_347 (ite .def_85 fluent_counter_t1@1 fluent_counter_t0@1))) (let ((.def_348 (ite .def_74 fluent_counter_t2@1 .def_347))) (let ((.def_349 (= .def_348 .def_346))) (let ((.def_350 (=> true .def_349))) (let ((.def_351 (= t@1 t@1))) (let ((.def_352 (and .def_351 .def_350 .def_343 .def_341))) (let ((.def_353 (ite .def_310 fluent_started_i0_t1@1 fluent_started_i0_t0@1))) (let ((.def_354 (ite .def_312 fluent_started_i0_t2@1 .def_353))) (let ((.def_355 (< t@1 .def_116))) (let ((.def_356 (and .def_355 .def_117))) (let ((.def_357 (=> .def_356 .def_354))) (let ((.def_358 (ite .def_310 fluent_started_i0_t1@0 fluent_started_i0_t0@0))) (let ((.def_359 (ite .def_312 fluent_started_i0_t2@0 .def_358))) (let ((.def_360 (<= .def_116 t@1))) (let ((.def_361 (< (- 1.0) .def_116))) (let ((.def_362 (and .def_361 .def_360))) (let ((.def_363 (=> .def_362 .def_359))) (let ((.def_364 (ite .def_323 fluent_ready_i0_t1@1 fluent_ready_i0_t0@1))) (let ((.def_365 (ite .def_325 fluent_ready_i0_t2@1 .def_364))) (let ((.def_366 (not .def_339))) (let ((.def_367 (not .def_333))) (let ((.def_368 (and .def_85 .def_51))) (let ((.def_369 (ite .def_368 false false))) (let ((.def_370 (and .def_74 .def_51))) (let ((.def_371 (ite .def_370 false .def_369))) (let ((.def_372 (and .def_94 .def_42))) (let ((.def_373 (ite .def_372 true .def_371))) (let ((.def_374 (and .def_85 .def_42))) (let ((.def_375 (ite .def_374 false .def_373))) (let ((.def_376 (and .def_74 .def_42))) (let ((.def_377 (ite .def_376 false .def_375))) (let ((.def_378 (and .def_94 .def_30))) (let ((.def_379 (ite .def_378 false .def_377))) (let ((.def_380 (and .def_85 .def_30))) (let ((.def_381 (ite .def_380 true .def_379))) (let ((.def_382 (and .def_74 .def_30))) (let ((.def_383 (ite .def_382 false .def_381))) (let ((.def_384 (= 0.0 .def_348))) (let ((.def_385 (and .def_384 .def_383 .def_193 .def_367 .def_366 .def_365))) (let ((.def_386 (<= t@1 t@2))) (let ((.def_387 (< t@1 t@1))) (let ((.def_388 (and .def_387 .def_386))) (let ((.def_389 (=> .def_388 .def_385))) (let ((.def_390 (ite .def_323 fluent_ready_i0_t1@0 fluent_ready_i0_t0@0))) (let ((.def_391 (ite .def_325 fluent_ready_i0_t2@0 .def_390))) (let ((.def_392 (ite .def_323 fluent_started_i0_t1@0 fluent_started_i0_t0@0))) (let ((.def_393 (ite .def_325 fluent_started_i0_t2@0 .def_392))) (let ((.def_394 (not .def_393))) (let ((.def_395 (ite .def_323 fluent_treated_i0_t1@0 fluent_treated_i0_t0@0))) (let ((.def_396 (ite .def_325 fluent_treated_i0_t2@0 .def_395))) (let ((.def_397 (not .def_396))) (let ((.def_398 (not fluent_busy_@0))) (let ((.def_399 (= 0.0 .def_345))) (let ((.def_400 (and .def_399 .def_383 .def_398 .def_397 .def_394 .def_391))) (let ((.def_401 (<= t@1 t@1))) (let ((.def_402 (< (- 1.0) t@1))) (let ((.def_403 (and .def_402 .def_401))) (let ((.def_404 (=> .def_403 .def_400))) (let ((.def_405 (<= dur_make_treatment@1 15.0))) (let ((.def_406 (<= 15.0 dur_make_treatment@1))) (let ((.def_407 (and .def_406 .def_405))) (let ((.def_408 (and .def_407 .def_117 .def_404 .def_389 .def_363 .def_357 .def_352 .def_337 .def_322))) (let ((.def_409 (=> act_make_treatment@1 .def_408))) (let ((.def_410 (<= 0.0 fluent_counter_t0@0))) (let ((.def_411 (<= fluent_counter_t2@0 31.0))) (let ((.def_412 (<= 0.0 fluent_counter_t2@0))) (let ((.def_413 (<= fluent_counter_t1@0 31.0))) (let ((.def_414 (<= 0.0 fluent_counter_t1@0))) (let ((.def_415 (<= fluent_counter_t0@0 31.0))) (let ((.def_416 (= fluent_counter_t2@0 0.0))) (let ((.def_417 (= fluent_counter_t1@0 0.0))) (let ((.def_418 (= fluent_counter_t0@0 0.0))) (let ((.def_419 (= false false))) (let ((.def_420 (= fluent_ready_i0_t2@0 false))) (let ((.def_421 (= fluent_ready_i0_t1@0 false))) (let ((.def_422 (= fluent_started_i0_t1@0 false))) (let ((.def_423 (= fluent_started_i0_t0@0 false))) (let ((.def_424 (= fluent_treated_i0_t2@0 false))) (let ((.def_425 (= fluent_treated_i0_t1@0 false))) (let ((.def_426 (= fluent_treated_i0_t0@0 false))) (let ((.def_427 (= fluent_busy_@0 false))) (let ((.def_428 (= fluent_ready_i0_t0@0 true))) (let ((.def_429 (= fluent_started_i0_t2@0 true))) (let ((.def_430 (= true true))) (let ((.def_431 (= 0.0 0.0))) (let ((.def_432 (and .def_431 .def_430 .def_430 .def_429 .def_428 .def_427 .def_426 .def_425 .def_424 .def_423 .def_422 .def_421 .def_420 .def_419 .def_419 .def_419 .def_419 .def_419 .def_419 .def_419 .def_418 .def_417 .def_416 .def_415 .def_414 .def_413 .def_412 .def_411 .def_410))) (let ((.def_433 (and .def_432 .def_409 .def_309 true .def_308 true .def_286 .def_227 .def_226 .def_225 .def_224 .def_223 .def_222 .def_221 .def_220 .def_31 .def_219 .def_147 .def_146 true .def_123 .def_115 .def_14 .def_13 .def_12 .def_11 .def_7 .def_6 .def_2 .def_1 .def_0 true))) .def_433)))))))))))))))))))))))))))))))))))))))))))))))))))))))))))))))))))))))))))))))))))))))))))))))))))))))))))))))))))))))))))))))))))))))))))))))))))))))))))))))))))))))))))))))))))))))))))))))))))))))))))))))))))))))))))))))))))))))))))))))))))))))))))))))))))))))))))))))))))))))))))))))))))))))))))))))))))))))))))))))))))))))))))))))))))))))))))))))))))))))))))))))))))))))))))))))))))))))))))))))))))))))))))))))))))))))))))))))))))
(check-sat)

--------------------------------------------------------------------------------
